NAME : TA-Prioritized.3621.tour
COMMENT : Length = 3621
COMMENT : Found by LKH-3 [Keld Helsgaun] Tue Feb  6 18:12:01 2024
TYPE : TOUR
DIMENSION : 106
TOUR_SECTION
1
5
21
6
33
29
12
22
2
18
15
17
7
19
14
25
8
45
37
43
41
49
28
34
31
32
27
38
35
50
44
30
55
52
80
67
97
92
88
91
86
93
85
94
84
46
63
47
96
87
89
81
101
95
98
64
99
74
90
82
105
102
106
103
104
53
62
20
100
77
68
70
51
76
79
75
83
78
69
72
59
56
61
54
58
48
57
23
26
10
24
9
16
11
60
36
73
39
71
65
66
40
3
13
4
42
-1
EOF
